
  21    0


   0  11 2 3 4 5 6 7 16 17 18 19 20 
   4   5 15 12 11 9 8 
   6   4 14 13 12 8 
   3   4 11 10 9 8 
   1   2 10 8 
   7   1 9 
   5   1 8 
   3   1 21
   7   1 21
   1   1 21
   2   1 21
  10   1 21
   7   1 21
   6   1 21
   3   1 21
   1   1 21
   6   1 21
   2   1 21
   2   1 21
   2   1 21
   0   0 
